28
1 0 30
2 0 7
2 1 23
3 0 31
3 1 28
3 2 13
4 0 35
4 1 5
4 2 44
4 3 24
5 0 6
5 1 41
5 2 20
5 3 27
5 4 18
6 0 9
6 1 41
6 2 27
6 3 15
6 4 26
6 5 22
7 0 8
7 1 31
7 2 38
7 3 4
7 4 17
7 5 23
7 6 25
8 0 1
8 1 47
8 2 33
8 3 1
8 4 40
8 5 25
8 6 11
8 7 6
9 0 38
9 1 11
9 2 41
9 3 3
9 4 13
9 5 27
9 6 10
9 7 2
9 8 21
10 0 40
10 1 29
10 2 40
10 3 36
10 4 26
10 5 25
10 6 15
10 7 2
10 8 5
10 9 33
11 0 42
11 1 6
11 2 36
11 3 30
11 4 43
11 5 45
11 6 3
11 7 33
11 8 11
11 9 42
11 10 41
12 0 36
12 1 19
12 2 34
12 3 3
12 4 43
12 5 25
12 6 7
12 7 9
12 8 3
12 9 13
12 10 10
12 11 8
13 0 13
13 1 6
13 2 46
13 3 10
13 4 2
13 5 16
13 6 40
13 7 33
13 8 1
13 9 24
13 10 43
13 11 14
13 12 41
14 0 34
14 1 10
14 2 30
14 3 9
14 4 24
14 5 11
14 6 40
14 7 39
14 8 5
14 9 24
14 10 46
14 11 37
14 12 47
14 13 19
15 0 18
15 1 36
15 2 20
15 3 26
15 4 15
15 5 47
15 6 19
15 7 8
15 8 5
15 9 36
15 10 32
15 11 30
15 12 8
15 13 44
15 14 21
16 0 38
16 1 28
16 2 22
16 3 27
16 4 40
16 5 19
16 6 18
16 7 4
16 8 2
16 9 39
16 10 46
16 11 44
16 12 11
16 13 26
16 14 10
16 15 16
17 0 12
17 1 13
17 2 17
17 3 3
17 4 24
17 5 16
17 6 33
17 7 24
17 8 11
17 9 18
17 10 23
17 11 44
17 12 28
17 13 42
17 14 27
17 15 15
17 16 7
18 0 13
18 1 33
18 2 13
18 3 31
18 4 9
18 5 44
18 6 5
18 7 10
18 8 31
18 9 39
18 10 22
18 11 47
18 12 19
18 13 37
18 14 22
18 15 23
18 16 41
18 17 42
19 0 14
19 1 21
19 2 10
19 3 35
19 4 27
19 5 20
19 6 22
19 7 6
19 8 36
19 9 26
19 10 2
19 11 3
19 12 46
19 13 24
19 14 29
19 15 46
19 16 17
19 17 18
19 18 26
20 0 44
20 1 11
20 2 30
20 3 10
20 4 7
20 5 31
20 6 8
20 7 36
20 8 9
20 9 42
20 10 30
20 11 32
20 12 29
20 13 18
20 14 11
20 15 21
20 16 3
20 17 20
20 18 23
20 19 31
21 0 40
21 1 31
21 2 5
21 3 16
21 4 31
21 5 15
21 6 32
21 7 12
21 8 46
21 9 42
21 10 40
21 11 20
21 12 12
21 13 12
21 14 13
21 15 6
21 16 1
21 17 31
21 18 20
21 19 9
21 20 14
22 0 26
22 1 7
22 2 16
22 3 8
22 4 13
22 5 21
22 6 41
22 7 19
22 8 23
22 9 43
22 10 39
22 11 11
22 12 26
22 13 40
22 14 30
22 15 43
22 16 42
22 17 46
22 18 35
22 19 38
22 20 1
22 21 3
23 0 40
23 1 25
23 2 38
23 3 15
23 4 21
23 5 1
23 6 17
23 7 46
23 8 11
23 9 19
23 10 15
23 11 21
23 12 14
23 13 35
23 14 21
23 15 18
23 16 6
23 17 19
23 18 13
23 19 44
23 20 4
23 21 17
23 22 22
24 0 21
24 1 27
24 2 42
24 3 28
24 4 15
24 5 16
24 6 10
24 7 30
24 8 24
24 9 26
24 10 21
24 11 1
24 12 21
24 13 13
24 14 17
24 15 5
24 16 35
24 17 3
24 18 15
24 19 32
24 20 11
24 21 23
24 22 7
24 23 22
25 0 18
25 1 21
25 2 37
25 3 8
25 4 41
25 5 19
25 6 6
25 7 10
25 8 40
25 9 13
25 10 8
25 11 10
25 12 18
25 13 27
25 14 33
25 15 5
25 16 7
25 17 29
25 18 37
25 19 5
25 20 39
25 21 17
25 22 3
25 23 16
25 24 22
26 0 8
26 1 24
26 2 21
26 3 23
26 4 44
26 5 4
26 6 28
26 7 42
26 8 12
26 9 23
26 10 43
26 11 5
26 12 15
26 13 12
26 14 1
26 15 17
26 16 44
26 17 9
26 18 11
26 19 40
26 20 41
26 21 30
26 22 39
26 23 32
26 24 11
26 25 32
27 0 5
27 1 18
27 2 42
27 3 5
27 4 10
27 5 41
27 6 43
27 7 18
27 8 20
27 9 38
27 10 20
27 11 9
27 12 28
27 13 31
27 14 37
27 15 41
27 16 23
27 17 17
27 18 24
27 19 21
27 20 8
27 21 43
27 22 29
27 23 13
27 24 19
27 25 19
27 26 16
